(set-logic QF_SLIA)
(declare-fun var0 () String)
(assert (not (str.in_re var0 (re.++ ((_ re.loop 7 288) (re.++ (re.union (str.to_re ">\u0022") (re.union (str.to_re "s,K") (re.union (str.to_re "Y):") (str.to_re "h")))) (re.++ (re.union (str.to_re ")") (re.union (str.to_re "r?") (re.union (str.to_re "#A") (str.to_re "UD")))) (re.++ (re.union (str.to_re "+&o") (re.union (str.to_re "=F\\") (re.union (str.to_re "\\") (str.to_re "kBO")))) (re.union (str.to_re "N!?") (re.union (str.to_re "61") (re.union (str.to_re "I") (str.to_re "0r")))))))) (re.++ ((_ re.loop 16 247) (re.++ (re.union (str.to_re "=2") (re.union (str.to_re "C-") (re.union (str.to_re "^hp") (str.to_re "Kh")))) (re.++ (re.union (str.to_re ".") (re.union (str.to_re ">") (re.union (str.to_re "4X'") (str.to_re "z")))) (re.++ (re.union (str.to_re "5|o") (re.union (str.to_re "_") (re.union (str.to_re "'") (str.to_re "L")))) (re.union (str.to_re "-k") (re.union (str.to_re "?S") (re.union (str.to_re "b") (str.to_re "~")))))))) (re.++ ((_ re.loop 1 943) (re.++ (re.union (str.to_re "2M>") (re.union (str.to_re "J+") (re.union (str.to_re "M(") (str.to_re "e4<")))) (re.++ (re.union (str.to_re "z") (re.union (str.to_re "~aS") (re.union (str.to_re "m,p") (str.to_re "@\u0022")))) (re.++ (re.union (str.to_re "*") (re.union (str.to_re "U") (re.union (str.to_re "AF") (str.to_re "#.")))) (re.union (str.to_re "h") (re.union (str.to_re "{") (re.union (str.to_re "\u0022_w") (str.to_re "|ek")))))))) ((_ re.loop 0 832) (re.++ (re.union (str.to_re "u") (re.union (str.to_re "Z(Y") (re.union (str.to_re "&4N") (str.to_re "W")))) (re.++ (re.union (str.to_re "b`") (re.union (str.to_re "|") (re.union (str.to_re "EYw") (str.to_re "V")))) (re.++ (re.union (str.to_re "n") (re.union (str.to_re "D0]") (re.union (str.to_re "?h") (str.to_re "Cv+")))) (re.union (str.to_re "jr") (re.union (str.to_re "P\u0022Y") (re.union (str.to_re "P9") (str.to_re "|"))))))))))))))
(assert (not (str.in_re var0 (re.++ ((_ re.loop 13 663) (re.++ (re.union (str.to_re "d.~") (re.union (str.to_re "YrL") (re.union (str.to_re ":6") (str.to_re ":%`")))) (re.++ (re.union (str.to_re "PE") (re.union (str.to_re ",") (re.union (str.to_re "\\?") (str.to_re "o}W")))) (re.++ (re.union (str.to_re "VO") (re.union (str.to_re "e+p") (re.union (str.to_re "L") (str.to_re "V5")))) (re.union (str.to_re "$!P") (re.union (str.to_re "Q") (re.union (str.to_re "4R") (str.to_re "yxd")))))))) (re.++ ((_ re.loop 4 958) (re.++ (re.union (str.to_re "LNH") (re.union (str.to_re "m&[") (re.union (str.to_re "n") (str.to_re "=d")))) (re.++ (re.union (str.to_re "0'$") (re.union (str.to_re "{|") (re.union (str.to_re "9F5") (str.to_re "o")))) (re.++ (re.union (str.to_re ".(H") (re.union (str.to_re "S#") (re.union (str.to_re "{pI") (str.to_re "gn,")))) (re.union (str.to_re "[mC") (re.union (str.to_re "[1") (re.union (str.to_re "{@") (str.to_re "%-G")))))))) (re.++ ((_ re.loop 14 46) (re.++ (re.union (str.to_re "|A") (re.union (str.to_re "V") (re.union (str.to_re "*o") (str.to_re "S$y")))) (re.++ (re.union (str.to_re "cT") (re.union (str.to_re "rsb") (re.union (str.to_re "f2g") (str.to_re "5")))) (re.++ (re.union (str.to_re "?a") (re.union (str.to_re "Xa.") (re.union (str.to_re "|=$") (str.to_re "\\c(")))) (re.union (str.to_re "Zu") (re.union (str.to_re "4F") (re.union (str.to_re "rN\u0022") (str.to_re "2B")))))))) ((_ re.loop 4 405) (re.++ (re.union (str.to_re ":") (re.union (str.to_re "-YR") (re.union (str.to_re "zI)") (str.to_re ".<:")))) (re.++ (re.union (str.to_re "#k") (re.union (str.to_re "FZg") (re.union (str.to_re "F*") (str.to_re "oG=")))) (re.++ (re.union (str.to_re "EM8") (re.union (str.to_re "QL") (re.union (str.to_re "e") (str.to_re "[")))) (re.union (str.to_re "M}") (re.union (str.to_re ":") (re.union (str.to_re "j") (str.to_re ";"))))))))))))))
(assert (not (str.in_re var0 (re.++ (re.* re.allchar) (re.++ (re.union (str.to_re "<") (re.union (str.to_re ">") (re.union (str.to_re "'") (re.union (str.to_re "\u0022") (str.to_re "&"))))) (re.* re.allchar))))))
(assert (<= 50 (str.len var0)))
(check-sat)
(get-model)
